RT is False
Default write of storage_offers_DA.csv just to have a file (but constraint should be inactive)
Reading model...
...model read.
creating competitive generators file...
...competitive generators recorded.
Loading data...
.. day-ahead data with real-time VRE data read.
Compiling instance...
...instance created.
Creating Offer Mitigation (model will solve as dispatch if TRUE)...
NOTE: storage offers will not be mitigated
...storage offer mitigation file created
Converting model to MPEC...
...converted
NOTE: initial MIP solve with only storage competitive to get feasible solution
Solving...

Welcome to IBM(R) ILOG(R) CPLEX(R) Interactive Optimizer 12.9.0.0
  with Simplex, Mixed Integer & Barrier Optimizers
5725-A06 5725-A29 5724-Y48 5724-Y49 5724-Y54 5724-Y55 5655-Y21
Copyright IBM Corp. 1988, 2019.  All Rights Reserved.

Type 'help' for a list of available commands.
Type 'help' followed by a command name for more
information on commands.

CPLEX> Logfile 'cplex.log' closed.
Logfile 'C:\Users\llavin\Desktop\test826\logs\tmp3tn5bkpv.cplex.log' open.
CPLEX> New value for parallel optimization mode: -1
CPLEX> New value for emphasis for MIP optimization: 1
CPLEX> New value for mixed integer optimality gap tolerance: 0.01
CPLEX> New value for integrality tolerance: 1e-12
CPLEX> New value for deterministic time limit in ticks: 75000
CPLEX> Problem 'C:\Users\llavin\Desktop\test826\logs\tmpi6lh35sp.pyomo.lp' read.
Read time = 0.22 sec. (13.92 ticks)
CPLEX> Problem name         : C:\Users\llavin\Desktop\test826\logs\tmpi6lh35sp.pyomo.lp
Objective sense      : Maximize
Variables            :   53809  [Nneg: 1,  Box: 22004,  Free: 4464,
                                 Binary: 27340]
Objective nonzeros   :    9029
Linear constraints   :  123253  [Less: 41346,  Greater: 59096,  Equal: 22811]
  Nonzeros           :  293217
  RHS nonzeros       :   67491

Variables            : Min LB: -5000.000        Max UB: 1000000.       
Objective nonzeros   : Min   : 0.2250000        Max   : 2500.000       
Linear constraints   :
  Nonzeros           : Min   : 0.2250000        Max   : 1000000.       
  RHS nonzeros       : Min   : 0.2250000        Max   : 1000000.       
CPLEX> CPXPARAM_Parallel                                -1
CPXPARAM_Emphasis_MIP                            1
CPXPARAM_DetTimeLimit                            75000
CPXPARAM_MIP_Tolerances_MIPGap                   0.01
CPXPARAM_MIP_Tolerances_Integrality              9.9999999999999998e-13
Tried aggregator 4 times.
MIP Presolve eliminated 88668 rows and 18971 columns.
MIP Presolve added 3380 rows and 0 columns.
MIP Presolve modified 24833 coefficients.
Aggregator did 13003 substitutions.
Reduced MIP has 24962 rows, 21279 columns, and 71808 nonzeros.
Reduced MIP has 8416 binaries, 0 generals, 0 SOSs, and 0 indicators.
Presolve time = 0.33 sec. (192.69 ticks)
Probing fixed 409 vars, tightened 3864 bounds.
Probing time = 0.06 sec. (19.29 ticks)
Tried aggregator 2 times.
MIP Presolve eliminated 926 rows and 826 columns.
MIP Presolve modified 3032 coefficients.
Aggregator did 26 substitutions.
Reduced MIP has 24010 rows, 20427 columns, and 69037 nonzeros.
Reduced MIP has 8004 binaries, 0 generals, 0 SOSs, and 0 indicators.
Presolve time = 0.11 sec. (89.51 ticks)
Probing fixed 5 vars, tightened 225 bounds.
Probing time = 0.14 sec. (23.73 ticks)
Clique table members: 44713.
MIP emphasis: integer feasibility.
MIP search method: dynamic search.
Parallel mode: opportunistic, using up to 32 threads.
Root relaxation solution time = 0.44 sec. (633.55 ticks)

        Nodes                                         Cuts/
   Node  Left     Objective  IInf  Best Integer    Best Bound    ItCnt     Gap

      0     0     3964.3813   107                   3964.3813     5393         
*     0+    0                         3964.3813     3964.3813             0.00%
      0     0        cutoff           3964.3813     3964.3813     5393    0.00%
Elapsed time = 1.69 sec. (1337.32 ticks, tree = 0.01 MB, solutions = 1)

Root node processing (before b&c):
  Real time             =    1.70 sec. (1339.27 ticks)
Parallel b&c, 32 threads:
  Real time             =    0.00 sec. (0.00 ticks)
  Sync time (average)   =    0.00 sec.
  Wait time (average)   =    0.00 sec.
                          ------------
Total (root+branch&cut) =    1.70 sec. (1339.27 ticks)

Solution pool: 1 solution saved.

MIP - Integer optimal solution:  Objective =  3.9643813170e+03
Solution time =    1.70 sec.  Iterations = 5393  Nodes = 0
Deterministic time = 1339.42 ticks  (786.51 ticks/sec)

CPLEX> Incumbent solution written to file 'C:\Users\llavin\Desktop\test826\logs\tmpnkkop0c4.cplex.sol'.
CPLEX> NOTE: no warmstart specified for MIP iteration, default behavior is true
NOTE: resolving with all competitive generators using storage-only solution to warmstart
Solving...

Welcome to IBM(R) ILOG(R) CPLEX(R) Interactive Optimizer 12.9.0.0
  with Simplex, Mixed Integer & Barrier Optimizers
5725-A06 5725-A29 5724-Y48 5724-Y49 5724-Y54 5724-Y55 5655-Y21
Copyright IBM Corp. 1988, 2019.  All Rights Reserved.

Type 'help' for a list of available commands.
Type 'help' followed by a command name for more
information on commands.

CPLEX> Logfile 'cplex.log' closed.
Logfile 'C:\Users\llavin\Desktop\test826\logs\tmpkp01dxzu.cplex.log' open.
CPLEX> New value for parallel optimization mode: -1
CPLEX> New value for emphasis for MIP optimization: 1
CPLEX> New value for mixed integer optimality gap tolerance: 0.01
CPLEX> New value for integrality tolerance: 1e-12
CPLEX> New value for deterministic time limit in ticks: 75000
CPLEX> Problem 'C:\Users\llavin\Desktop\test826\logs\tmplbqfppum.pyomo.lp' read.
Read time = 0.23 sec. (13.94 ticks)
CPLEX> MIP start file 'C:\Users\llavin\Desktop\test826\logs\tmpcwl70vd7.cplex.mst' read.
CPLEX> Problem name         : C:\Users\llavin\Desktop\test826\logs\tmplbqfppum.pyomo.lp
Objective sense      : Maximize
Variables            :   54529  [Nneg: 1,  Box: 22724,  Free: 4464,
                                 Binary: 27340]
Objective nonzeros   :    9725
Linear constraints   :  123253  [Less: 41346,  Greater: 59096,  Equal: 22811]
  Nonzeros           :  293217
  RHS nonzeros       :   67491

Variables            : Min LB: -5000.000        Max UB: 1000000.       
Objective nonzeros   : Min   : 0.2250000        Max   : 2500.000       
Linear constraints   :
  Nonzeros           : Min   : 0.2250000        Max   : 1000000.       
  RHS nonzeros       : Min   : 0.2250000        Max   : 1000000.       
CPLEX> CPXPARAM_Parallel                                -1
CPXPARAM_Emphasis_MIP                            1
CPXPARAM_DetTimeLimit                            75000
CPXPARAM_MIP_Tolerances_MIPGap                   0.01
CPXPARAM_MIP_Tolerances_Integrality              9.9999999999999998e-13
Warning:  No solution found from 1 MIP starts.
Retaining values of one MIP start for possible repair.
Tried aggregator 4 times.
MIP Presolve eliminated 88668 rows and 19691 columns.
MIP Presolve added 3380 rows and 0 columns.
MIP Presolve modified 24833 coefficients.
Aggregator did 13003 substitutions.
Reduced MIP has 24962 rows, 21279 columns, and 71808 nonzeros.
Reduced MIP has 8416 binaries, 0 generals, 0 SOSs, and 0 indicators.
Presolve time = 0.31 sec. (193.09 ticks)
Probing fixed 409 vars, tightened 3864 bounds.
Probing time = 0.08 sec. (19.29 ticks)
Tried aggregator 2 times.
MIP Presolve eliminated 926 rows and 826 columns.
MIP Presolve modified 3032 coefficients.
Aggregator did 26 substitutions.
Reduced MIP has 24010 rows, 20427 columns, and 69037 nonzeros.
Reduced MIP has 8004 binaries, 0 generals, 0 SOSs, and 0 indicators.
Presolve time = 0.13 sec. (89.52 ticks)
Probing fixed 5 vars, tightened 225 bounds.
Probing time = 0.16 sec. (23.73 ticks)
Clique table members: 44713.
MIP emphasis: integer feasibility.
MIP search method: dynamic search.
Parallel mode: opportunistic, using up to 32 threads.
Root relaxation solution time = 0.47 sec. (669.54 ticks)

        Nodes                                         Cuts/
   Node  Left     Objective  IInf  Best Integer    Best Bound    ItCnt     Gap

      0     0    77775.2984   207                  77775.2984     5780         
      0     0    75982.4703   112                    Cuts: 97     5893         
      0     0    75574.2850   105                    Cuts: 47     5924         
      0     0    75572.7496   109                    Cuts: 12     5933         
Repair heuristic found nothing.
      0    23    70939.0806    89                     Cuts: 9     6201         
Elapsed time = 4.31 sec. (1922.40 ticks, tree = 0.02 MB, solutions = 0)
    657   452    60042.2637    80                  72420.7105    10180         
   1127   790    33287.7303    40                  72420.7105    13518         
   1836  1538  -129588.6323    27                  72420.7105    26084         
   2462  1658    57580.7669    34                  72420.7105    29672         
   3124  1931   -18480.0224    36                  72420.7105    35034         
   3778  2331    14734.7186    46                  72332.3463    42907         
   4468  2751   -22368.5870    27                  72317.5993    54148         
   5082  3182    54470.5159    37                  72317.5993    65656         
   5774  4016    infeasible                        72317.5993    94018         
   8288  4992    55647.1200    36                  72317.5993   134985         
Elapsed time = 19.72 sec. (5024.74 ticks, tree = 34.58 MB, solutions = 0)
   8531  5958    55223.3179    63                  61430.0547   176538         
  10316  1297    58901.1981    43                  59496.1861   228836         
  12961  2334   -78001.6341    48                  59434.1705   277081         
  15581  3562   -19271.9154    80                  59434.1705   350166         
  18004  4871    44834.7377    63                  59434.1705   451455         
  20545  5983    44529.1469    58                  59434.1705   528961         
  23021  7919    18762.2415    54                  59434.1705   657020         
  25272  8840    34739.2484    84                  59434.1705   708241         
  27234 10008    35877.3594    32                  59434.1705   825055         
  29103 10461     7523.4647   135                  59434.1705   867902         
Elapsed time = 75.92 sec. (15868.08 ticks, tree = 96.46 MB, solutions = 0)
  30916 11890    21214.3771    49                  59434.1705  1065050         
  32587 12036    infeasible                        59434.1705  1089401         
  34281 13954    57223.1639    15                  59434.1705  1287129         
  36132 13977    12753.1374   181                  59434.1705  1290615         
  38036 14955    15899.4582    55                  59434.1705  1388201         
  39817 15446    23260.5425    81                  59434.1705  1439270         
  41478 16112    50322.2674    12                  59434.1705  1527659         
* 43011+ 1996                        50322.2674    59434.1705            18.11%
  45284  2209    50758.4771    33    50322.2674    59434.1705  1850622   18.11%
  47579  2412    50589.3681    45    50322.2674    59434.1705  1813996   18.11%
Elapsed time = 149.67 sec. (25381.59 ticks, tree = 20.62 MB, solutions = 2)
  50466  1963    53171.7234    55    50322.2674    59434.1705  1975395   18.11%
  53932  1843    51061.7926    63    50322.2674    59434.1705  2049478   18.11%
  57303  1981    54655.4193    49    50322.2674    59434.1705  2024690   18.11%
  60537  1601    55256.2091    41    50322.2674    59434.1705  2143961   18.11%
  63575  5631    56261.4332    59    50322.2674    59434.1705  2237556   18.11%
  66131  4676    53443.8781    25    50322.2674    59434.1705  2207550   18.11%
  68512  7079    50445.5989    44    50322.2674    59434.1705  2272099   18.11%
  71107  5880    52655.0805    48    50322.2674    59434.1705  2243081   18.11%
  73722  8814    infeasible          50322.2674    59434.1705  2320092   18.11%
  76346  7689    51615.8315    24    50322.2674    59434.1705  2291351   18.11%
Elapsed time = 206.78 sec. (34920.16 ticks, tree = 54.27 MB, solutions = 2)
  79057  7601    53812.1810    24    50322.2674    59434.1705  2289153   18.11%
  81882  9369        cutoff          50322.2674    59434.1705  2338827   18.11%
  84701  9487    54251.0258    23    50322.2674    59434.1705  2342759   18.11%
  87641  9485    53582.3937    21    50322.2674    59434.1705  2341159   18.11%
  90478  8524    56410.6466    25    50322.2674    59434.1705  2314305   18.11%
  93281  9554    56218.5579    17    50322.2674    59434.1705  2343031   18.11%
  96033 10852    infeasible          50322.2674    59434.1705  2379261   18.11%
  98843 10135    50795.0382    79    50322.2674    59434.1705  2362742   18.11%
 101671  9733    55990.5251    17    50322.2674    59434.1705  2346103   18.11%
 104359 13773        cutoff          50322.2674    59434.1705  2461955   18.11%
Elapsed time = 206.80 sec. (44461.98 ticks, tree = 102.20 MB, solutions = 2)
 107211 10405        cutoff          50322.2674    59434.1705  2370166   18.11%
 109971 10217    55188.1525    60    50322.2674    59434.1705  2372526   18.11%
 112520 13563    56152.7252    24    50322.2674    59434.1705  2455601   18.11%
 114944 12901    56801.3880    19    50322.2674    59434.1705  2437883   18.11%
 117318 12741    infeasible          50322.2674    59434.1705  2441520   18.11%
 119611 11937        cutoff          50322.2674    59434.1705  2415348   18.11%
 121852 14264        cutoff          50322.2674    59434.1705  2480768   18.11%
 123951 13323    52037.6816    21    50322.2674    59434.1705  2452415   18.11%
 125987 12055    51457.3852    39    50322.2674    59434.1705  2424904   18.11%
 128007 14050        cutoff          50322.2674    59434.1705  2473325   18.11%
Elapsed time = 224.44 sec. (54005.38 ticks, tree = 104.49 MB, solutions = 2)
 129971 13152        cutoff          50322.2674    59434.1705  2448275   18.11%
 131787 16712    infeasible          50322.2674    59434.1705  2548706   18.11%
 133502 14614        cutoff          50322.2674    59434.1705  2492431   18.11%
 135109 12423        cutoff          50322.2674    59434.1705  2424617   18.11%
 136529 16021        cutoff          50322.2674    59434.1705  2538744   18.11%
 137872 16406    55302.7143    22    50322.2674    59434.1705  2538481   18.11%
 139322 15877        cutoff          50322.2674    59434.1705  2516580   18.11%
 140582 17196        cutoff          50322.2674    59434.1705  2561542   18.11%
 141796 17518    56149.0504    76    50322.2674    59434.1705  2575025   18.11%
 142988 16170    56719.1578    27    50322.2674    59434.1705  2546628   18.11%
Elapsed time = 240.00 sec. (63546.09 ticks, tree = 121.74 MB, solutions = 2)
 144015 17126        cutoff          50322.2674    59434.1705  2558993   18.11%
 144966 16187    56725.9908    38    50322.2674    59434.1705  2551265   18.11%
 145732 16245    54526.5120    32    50322.2674    59434.1705  2552420   18.11%
 146295 17343    56508.9906    21    50322.2674    59434.1705  2569625   18.11%
 146768 17247    56542.6775    23    50322.2674    59434.1705  2564014   18.11%
 147150 17368    51330.2546    50    50322.2674    59434.1705  2572367   18.11%
 147491 16652    50437.5794     3    50322.2674    59434.1705  2539437   18.11%
 147750 17299    52799.9634    66    50322.2674    59434.1705  2567500   18.11%
 147977 17868    55518.0136    59    50322.2674    59434.1705  2587943   18.11%
 148135 17323    55419.3435    28    50322.2674    59434.1705  2569672   18.11%
Elapsed time = 247.75 sec. (73113.87 ticks, tree = 130.47 MB, solutions = 2)
 148250 17353    55770.0843    32    50322.2674    59434.1705  2570671   18.11%
 148347 17058    50371.4158     2    50322.2674    59434.1705  2556968   18.11%

Cover cuts applied:  73
Flow cuts applied:  112
Mixed integer rounding cuts applied:  5
Gomory fractional cuts applied:  4

Root node processing (before b&c):
  Real time             =    2.75 sec. (1884.51 ticks)
Parallel b&c, 32 threads:
  Real time             =  245.41 sec. (73732.04 ticks)
  Sync time (average)   =    1.42 sec.
  Wait time (average)   =    0.25 sec.
                          ------------
Total (root+branch&cut) =  248.16 sec. (75616.56 ticks)

Solution pool: 2 solutions saved.

MIP - Deterministic time limit exceeded, integer feasible:  Objective =  5.0322267396e+04
Current MIP best bound =  5.9334547387e+04 (gap = 9012.28, 17.91%)
Solution time =  248.16 sec.  Iterations = 3160916  Nodes = 148349 (30444)
Deterministic time = 75616.71 ticks  (304.71 ticks/sec)

CPLEX> Incumbent solution written to file 'C:\Users\llavin\Desktop\test826\logs\tmpuo0kw_49.cplex.sol'.
CPLEX> Exporting results... 
